data;


param FN:= 5;
param D:= 100;
param U_Original:=
         1         1       -1.027729e+00
         2         1       -1.935418e+00
         3         1       -2.854821e-01
         4         1        1.508207e-01
         5         1        9.089649e-01
         6         1       -1.035171e-01
         7         1        1.202677e+00
         8         1       -3.595650e-01
         9         1       -5.171281e-01
        10         1        4.668119e-01
        11         1        3.401577e-02
        12         1        3.083517e-01
        13         1        1.155498e+00
        14         1        1.879560e+00
        15         1        6.877818e-01
        16         1        8.302327e-01
        17         1       -8.814786e-02
        18         1       -4.266989e-01
        19         1       -1.328145e+00
        20         1        4.157612e-01
        21         1       -5.804576e-01
        22         1        1.443443e+00
        23         1       -6.847609e-01
        24         1       -1.850258e-01
        25         1       -2.159999e-01
        26         1       -1.318008e+00
        27         1       -9.520039e-01
        28         1        8.347634e-01
        29         1       -1.465046e-01
        30         1        1.081483e+00
        31         1       -5.677773e-01
        32         1       -5.534865e-03
        33         1        7.656375e-01
        34         1       -1.097847e+00
        35         1       -9.824196e-01
        36         1        1.543433e+00
        37         1       -1.460489e+00
        38         1        6.003586e-01
        39         1       -1.399722e+00
        40         1       -1.177262e+00
        41         1        1.061881e-01
        42         1       -6.659286e-01
        43         1       -8.251887e-02
        44         1       -3.076630e-01
        45         1        1.637077e+00
        46         1       -9.287564e-01
        47         1       -1.522302e+00
        48         1        1.475641e+00
        49         1        2.825638e-01
        50         1        4.868104e-01
        51         1       -5.585833e-01
        52         1       -1.124602e+00
        53         1       -2.854690e-01
        54         1       -7.085865e-01
        55         1       -7.915868e-01
        56         1       -8.901939e-01
        57         1       -1.185003e+00
        58         1        6.191942e-01
        59         1        1.125547e+00
        60         1       -1.248309e+00
        61         1        8.798532e-01
        62         1        3.147541e-01
        63         1       -3.461105e-01
        64         1       -4.885295e-02
        65         1       -8.492081e-01
        66         1        2.255322e-01
        67         1       -1.177437e-01
        68         1        4.138902e-01
        69         1       -1.266743e-01
        70         1        7.952417e-01
        71         1        7.255675e-01
        72         1        3.714035e-01
        73         1       -3.908331e-01
        74         1        5.887509e-01
        75         1        4.142719e-01
        76         1       -2.261566e+00
        77         1        4.431032e-01
        78         1        1.248505e+00
        79         1       -1.092981e-01
        80         1       -2.175035e-01
        81         1       -3.756687e-01
        82         1       -2.001422e+00
        83         1        8.019854e-01
        84         1        4.284163e-01
        85         1       -1.806379e+00
        86         1        1.888826e+00
        87         1        7.687397e-01
        88         1        7.930502e-01
        89         1       -1.440655e+00
        90         1       -1.114854e+00
        91         1        1.966253e-01
        92         1        1.371525e+00
        93         1        4.964686e-02
        94         1       -3.440372e-01
        95         1        1.968457e+00
        96         1        1.654752e+00
        97         1        1.770613e-01
        98         1        1.137435e+00
        99         1        1.291293e+00
       100         1        7.271623e-01
         1         2        9.555967e-02
         2         2        1.122722e+00
         3         2       -2.717803e-01
         4         2       -1.248035e+00
         5         2        5.178411e-02
         6         2       -1.010228e+00
         7         2        9.871821e-01
         8         2       -2.571189e-01
         9         2        1.996794e+00
        10         2       -4.631908e-01
        11         2       -6.601956e-02
        12         2       -5.551152e-01
        13         2       -2.003480e-01
        14         2       -2.613444e-01
        15         2        4.217228e-01
        16         2       -4.804162e-01
        17         2        1.625605e-01
        18         2       -8.615115e-02
        19         2       -3.626180e-01
        20         2       -6.598180e-01
        21         2        2.139269e+00
        22         2       -8.000166e-01
        23         2        7.059433e-01
        24         2        1.022256e+00
        25         2        2.050436e-01
        26         2        2.854544e-01
        27         2        4.238387e-01
        28         2        1.028815e+00
        29         2        2.449432e-01
        30         2       -3.617233e-01
        31         2        9.557409e-01
        32         2        7.448341e-01
        33         2        7.330197e-01
        34         2       -1.435281e+00
        35         2       -5.423554e-01
        36         2        1.050081e+00
        37         2       -3.051959e-01
        38         2       -7.393781e-01
        39         2       -1.218430e+00
        40         2       -3.516561e-01
        41         2       -8.510817e-01
        42         2       -1.405044e-01
        43         2        4.924866e-01
        44         2        7.912387e-01
        45         2       -2.812521e-02
        46         2        2.815430e+00
        47         2       -8.687952e-01
        48         2        1.518872e+00
        49         2        3.080951e-01
        50         2       -3.440110e-01
        51         2       -9.267787e-01
        52         2       -1.481235e+00
        53         2        1.945939e-01
        54         2       -6.301298e-01
        55         2       -6.265892e-02
        56         2       -5.863315e-02
        57         2        1.381856e+00
        58         2        1.726621e+00
        59         2        3.146275e-01
        60         2        2.085068e+00
        61         2       -8.419209e-01
        62         2       -3.682706e-01
        63         2       -7.420372e-01
        64         2       -1.689812e+00
        65         2       -1.231196e-01
        66         2        1.154146e-01
        67         2        4.143431e-01
        68         2        1.408213e+00
        69         2        7.682837e-01
        70         2        7.835663e-01
        71         2        4.015245e-01
        72         2       -5.943626e-01
        73         2       -2.130870e+00
        74         2        2.444177e-01
        75         2       -1.232308e+00
        76         2       -6.335651e-01
        77         2       -6.921203e-02
        78         2        1.686070e+00
        79         2       -4.995776e-01
        80         2        6.961344e-01
        81         2        1.278483e+00
        82         2       -6.606623e-01
        83         2       -7.422079e-01
        84         2       -3.843522e-01
        85         2        1.229091e+00
        86         2        1.427843e-01
        87         2        5.764658e-01
        88         2       -4.185382e-01
        89         2        5.026965e-01
        90         2        4.703837e-01
        91         2       -6.902178e-01
        92         2       -7.849053e-02
        93         2        1.120167e+00
        94         2       -4.151401e-01
        95         2       -1.862989e+00
        96         2        4.347068e-01
        97         2        7.918407e-01
        98         2        2.904984e-01
        99         2       -1.127581e+00
       100         2        2.148034e-01
         1         3        1.113518e+00
         2         3       -1.619028e+00
         3         3       -1.868322e-01
         4         3        2.165870e-01
         5         3        6.371517e-02
         6         3        6.920047e-01
         7         3       -7.886757e-01
         8         3       -1.267439e+00
         9         3       -7.726883e-01
        10         3       -4.195010e-01
        11         3       -1.263512e+00
        12         3        5.144284e-01
        13         3       -9.040557e-01
        14         3        3.138902e-01
        15         3       -7.311610e-02
        16         3        4.804167e-01
        17         3        1.030126e+00
        18         3        1.050169e+00
        19         3       -7.303996e-01
        20         3       -3.062930e-01
        21         3        5.335609e-02
        22         3       -6.850612e-01
        23         3       -1.146838e+00
        24         3       -5.778484e-01
        25         3        8.327149e-01
        26         3       -2.790134e-01
        27         3        1.286141e+00
        28         3        8.474141e-01
        29         3        1.589648e+00
        30         3       -8.538646e-01
        31         3       -1.652553e+00
        32         3        9.879630e-02
        33         3        3.158130e-01
        34         3        1.464389e-01
        35         3        1.782175e+00
        36         3        1.585482e+00
        37         3        1.476979e+00
        38         3        1.454360e+00
        39         3        1.047102e+00
        40         3        4.409223e-01
        41         3       -2.139275e-02
        42         3       -2.352222e-01
        43         3        3.014419e-01
        44         3        1.723071e+00
        45         3       -1.418825e-01
        46         3       -7.052307e-01
        47         3       -5.857559e-01
        48         3       -1.012998e+00
        49         3       -6.751277e-01
        50         3        5.501357e-01
        51         3        1.046477e+00
        52         3        2.958281e-01
        53         3        1.726129e-01
        54         3       -7.771416e-02
        55         3        1.158335e-02
        56         3        3.514705e-01
        57         3       -9.578365e-01
        58         3        2.055070e-01
        59         3        7.372354e-02
        60         3        2.389075e-01
        61         3        1.499558e+00
        62         3       -5.460507e-01
        63         3        1.385085e+00
        64         3        1.641096e-01
        65         3       -7.570117e-01
        66         3        2.176813e+00
        67         3       -2.021306e+00
        68         3        4.564947e-02
        69         3        2.740246e+00
        70         3        9.097791e-01
        71         3       -1.451508e-01
        72         3       -1.206494e+00
        73         3       -1.776161e+00
        74         3       -7.254440e-01
        75         3       -1.134640e+00
        76         3       -7.722373e-01
        77         3       -1.855656e-01
        78         3       -2.010719e-01
        79         3        2.167496e-01
        80         3        8.680022e-02
        81         3       -2.462357e-01
        82         3       -8.170585e-01
        83         3       -1.873860e-01
        84         3       -2.244181e-01
        85         3        9.449068e-03
        86         3       -5.496404e-01
        87         3       -7.557094e-01
        88         3        9.109717e-01
        89         3       -3.383415e-01
        90         3       -1.706231e+00
        91         3       -8.979342e-01
        92         3        8.708189e-01
        93         3       -1.731696e+00
        94         3       -1.027584e+00
        95         3       -1.199023e+00
        96         3       -1.072013e+00
        97         3       -1.042966e+00
        98         3       -5.345104e-01
        99         3        1.136968e+00
       100         3        1.728940e+00
         1         4        1.642042e+00
         2         4       -4.242193e-02
         3         4       -9.183943e-01
         4         4       -7.275772e-01
         5         4        3.402231e-01
         6         4        6.275986e-01
         7         4        3.767873e-02
         8         4       -9.311405e-01
         9         4        4.826299e-01
        10         4        5.232701e-01
        11         4        3.707071e-01
        12         4        6.948706e-01
        13         4        9.315404e-01
        14         4       -1.558072e+00
        15         4        7.746690e-01
        16         4        4.052304e-01
        17         4        1.468004e+00
        18         4        1.676804e+00
        19         4       -1.694187e+00
        20         4       -1.110226e+00
        21         4       -3.604346e-01
        22         4       -3.322295e-01
        23         4        3.733590e-01
        24         4        1.060613e-01
        25         4        8.508209e-01
        26         4        6.611735e-02
        27         4       -4.556582e-01
        28         4        1.337187e+00
        29         4       -2.219769e+00
        30         4        3.608951e-01
        31         4       -1.090718e-01
        32         4        1.037281e+00
        33         4        7.597798e-01
        34         4       -8.270944e-01
        35         4       -3.634787e-01
        36         4       -1.168162e-01
        37         4       -3.343153e-01
        38         4       -3.075929e-01
        39         4        8.574683e-01
        40         4        1.209921e+00
        41         4       -9.105366e-01
        42         4       -3.170659e-01
        43         4       -3.018098e-01
        44         4        7.159710e-01
        45         4        6.615931e-01
        46         4        2.069736e+00
        47         4       -2.087733e+00
        48         4        2.359847e-01
        49         4        1.721512e+00
        50         4       -4.959947e-01
        51         4       -1.343619e+00
        52         4       -3.957365e-01
        53         4       -1.995786e+00
        54         4        4.604761e-01
        55         4        1.165901e+00
        56         4       -1.748823e-01
        57         4        1.264837e+00
        58         4        5.147553e-01
        59         4       -3.197784e-01
        60         4       -3.539604e-01
        61         4       -5.284017e-01
        62         4       -7.028468e-02
        63         4        1.493978e+00
        64         4        1.468752e+00
        65         4       -4.990149e-01
        66         4        2.357087e-01
        67         4        3.418873e-01
        68         4        1.423522e+00
        69         4        5.545306e-01
        70         4        2.426439e+00
        71         4       -8.182140e-01
        72         4        5.697573e-02
        73         4       -1.060155e+00
        74         4       -1.001360e+00
        75         4        4.100581e+00
        76         4        1.038049e+00
        77         4        1.173386e+00
        78         4        4.927358e-01
        79         4       -5.748002e-01
        80         4        6.646880e-01
        81         4        2.005639e+00
        82         4       -3.863326e-01
        83         4        1.071292e+00
        84         4       -1.127114e+00
        85         4        7.682115e-01
        86         4       -2.794372e-01
        87         4        2.143040e+00
        88         4        8.442883e-01
        89         4       -6.743705e-01
        90         4       -1.045532e+00
        91         4       -3.042830e-01
        92         4       -2.285301e+00
        93         4        1.050605e-01
        94         4        2.339061e+00
        95         4       -1.658350e+00
        96         4       -5.527622e-01
        97         4        1.406833e+00
        98         4        2.645125e-01
        99         4        1.191878e+00
       100         4       -1.229366e+00
         1         5       -3.216881e-01
         2         5       -9.161533e-01
         3         5       -3.602932e-01
         4         5       -1.082126e+00
         5         5        5.178451e-02
         6         5       -3.385246e-01
         7         5        1.123755e+00
         8         5       -1.209236e+00
         9         5       -1.644870e+00
        10         5       -7.376501e-02
        11         5        1.906023e-01
        12         5       -1.724813e-02
        13         5        2.977943e-01
        14         5       -1.980265e-02
        15         5        4.343218e-01
        16         5        1.025182e+00
        17         5       -1.178186e+00
        18         5       -3.436532e-01
        19         5       -2.426569e+00
        20         5        5.722319e-01
        21         5        1.744422e+00
        22         5        3.056710e-01
        23         5        4.206490e-01
        24         5        5.378159e-01
        25         5        2.457632e+00
        26         5        7.724061e-01
        27         5       -8.748550e-01
        28         5       -1.097105e+00
        29         5        3.354698e-01
        30         5       -2.976749e-01
        31         5       -3.957548e-01
        32         5       -2.640084e-01
        33         5       -4.387191e-01
        34         5        1.667177e+00
        35         5        1.471069e+00
        36         5        2.914148e+00
        37         5       -2.808497e+00
        38         5        9.273339e-02
        39         5        1.938109e+00
        40         5        1.432567e+00
        41         5        1.986124e+00
        42         5        9.287478e-01
        43         5        1.313993e+00
        44         5        6.316670e-01
        45         5       -2.113157e-01
        46         5       -7.608202e-01
        47         5       -4.988440e-01
        48         5        1.551186e+00
        49         5       -1.051622e+00
        50         5       -1.602951e+00
        51         5       -7.009934e-01
        52         5        1.065795e+00
        53         5       -6.070187e-01
        54         5       -3.884310e-01
        55         5       -3.267301e-01
        56         5       -3.395941e-01
        57         5       -4.562530e-02
        58         5       -2.952236e-02
        59         5        6.777601e-02
        60         5       -3.415004e-01
        61         5       -6.356255e-01
        62         5        5.324150e-01
        63         5       -9.366490e-01
        64         5       -8.842751e-01
        65         5       -1.992569e-01
        66         5       -1.108768e+00
        67         5        1.737049e-01
        68         5       -7.652048e-01
        69         5        1.342883e-01
        70         5       -2.180737e+00
        71         5       -1.503715e-01
        72         5        3.883109e-01
        73         5       -8.881249e-01
        74         5       -1.428445e+00
        75         5       -3.896673e-02
        76         5       -7.478965e-02
        77         5       -2.712154e-01
        78         5       -1.802187e+00
        79         5       -9.340053e-01
        80         5       -1.410071e+00
        81         5        1.822967e-01
        82         5        8.772477e-01
        83         5        9.865125e-01
        84         5        1.179410e+00
        85         5       -6.682048e-01
        86         5        1.458959e+00
        87         5        1.111155e+00
        88         5       -1.068061e+00
        89         5       -7.583840e-01
        90         5       -6.469117e-01
        91         5        2.616982e-01
        92         5        1.215095e+00
        93         5        7.632349e-01
        94         5       -1.188618e+00
        95         5        3.913152e-01
        96         5       -4.609796e-01
        97         5       -2.286139e-02
        98         5        2.781781e-01
        99         5       -1.920392e-01
       100         5       -1.351429e-01
;
param X_Original:=
    1        3.163204e-01
    2        2.876392e-01
    3       -2.219792e-01
    4        1.729650e-01
    5        4.290749e-01
    6        4.533212e-01
    7       -2.007531e-01
    8       -2.927933e+00
    9        8.633969e-01
   10        2.629874e-01
   11       -2.788528e-01
   12        3.073071e-01
   13       -1.378904e+00
   14       -4.766719e-01
   15       -1.343479e+00
   16       -1.632022e+00
   17        3.611348e-01
   18        1.621963e-01
   19       -8.512635e-02
   20        1.814314e+00
   21        5.458294e-01
   22       -1.428241e+00
   23        3.644072e-02
   24       -1.668132e-01
   25       -4.696909e-01
   26       -6.424542e-01
   27       -1.014107e-01
   28       -9.296775e-01
   29       -2.306974e-01
   30        5.856034e-03
   31       -3.958803e-01
   32       -1.420045e+00
   33        1.025958e+00
   34        6.490723e-01
   35        2.623585e+00
   36       -1.674879e+00
   37        6.125238e-01
   38       -1.362059e-01
   39       -1.542650e+00
   40       -4.251493e-01
   41        1.151733e+00
   42        1.103607e+00
   43        2.724250e-01
   44        2.252266e+00
   45        5.559538e-01
   46        2.100173e+00
   47        1.422686e+00
   48       -6.090986e-02
   49       -8.931898e-01
   50        3.898538e-01
   51        5.782361e-01
   52        9.790838e-01
   53       -1.161826e+00
   54        4.284652e-02
   55       -1.035854e+00
   56        1.808275e+00
   57        8.844326e-01
   58        1.157068e+00
   59        2.560178e-01
   60       -3.980429e-01
   61        9.673641e-01
   62        1.920790e+00
   63        1.361737e+00
   64       -1.679397e+00
   65        7.356686e-01
   66        4.468302e-01
   67        1.158903e+00
   68       -1.149804e+00
   69        2.375413e-01
   70        4.249536e-01
   71       -8.665603e-01
   72        1.974290e+00
   73        1.114928e+00
   74        1.162444e+00
   75       -3.108413e+00
   76        1.399589e+00
   77       -1.023391e+00
   78        2.242841e-01
   79       -2.333964e-01
   80       -1.888928e-01
   81       -1.034358e+00
   82       -1.663343e+00
   83        1.790435e-01
   84        1.347098e+00
   85       -7.952946e-01
   86        8.830536e-02
   87        8.256371e-01
   88        1.065205e+00
   89        7.777564e-01
   90       -3.530247e-01
   91        7.648913e-01
   92        2.619741e+00
   93        1.557543e+00
   94       -1.651413e+00
   95        1.018652e+00
   96       -1.047530e+00
   97        5.098111e-01
   98       -1.050087e+00
   99       -1.740643e+00
  100       -1.256044e+00
;
param outliervec_original :=
    1    1
    2    1
    3    1
    4    1
    5    1
    6    0
    7    1
    8    1
    9    1
   10    1
   11    1
   12    1
   13    1
   14    1
   15    0
   16    0
   17    1
   18    1
   19    1
   20    1
   21    1
   22    1
   23    1
   24    0
   25    1
   26    1
   27    1
   28    1
   29    1
   30    1
   31    0
   32    1
   33    1
   34    0
   35    0
   36    0
   37    1
   38    1
   39    1
   40    1
   41    1
   42    1
   43    0
   44    0
   45    1
   46    1
   47    1
   48    1
   49    0
   50    1
   51    1
   52    1
   53    1
   54    1
   55    1
   56    1
   57    1
   58    1
   59    1
   60    1
   61    1
   62    1
   63    1
   64    1
   65    1
   66    1
   67    1
   68    1
   69    1
   70    1
   71    1
   72    1
   73    1
   74    1
   75    0
   76    1
   77    0
   78    1
   79    1
   80    1
   81    1
   82    1
   83    1
   84    1
   85    1
   86    1
   87    1
   88    1
   89    1
   90    1
   91    1
   92    1
   93    1
   94    1
   95    1
   96    1
   97    1
   98    1
   99    0
  100    1
;
param d:= 57;
param r:=5;
param p:=0.860000;
param M:=1000;
param U:=
         1         1       -1.935418e+00
         2         1        1.508207e-01
         3         1        1.202677e+00
         4         1        3.401577e-02
         5         1        1.155498e+00
         6         1        6.877818e-01
         7         1        4.157612e-01
         8         1       -5.804576e-01
         9         1       -6.847609e-01
        10         1       -1.850258e-01
        11         1       -2.159999e-01
        12         1       -1.318008e+00
        13         1       -9.520039e-01
        14         1        8.347634e-01
        15         1        1.081483e+00
        16         1       -5.677773e-01
        17         1       -5.534865e-03
        18         1       -1.097847e+00
        19         1       -1.460489e+00
        20         1        6.003586e-01
        21         1       -1.177262e+00
        22         1        1.061881e-01
        23         1       -6.659286e-01
        24         1       -8.251887e-02
        25         1       -1.522302e+00
        26         1        1.475641e+00
        27         1        2.825638e-01
        28         1        4.868104e-01
        29         1       -5.585833e-01
        30         1       -1.124602e+00
        31         1       -7.085865e-01
        32         1       -7.915868e-01
        33         1        1.125547e+00
        34         1       -1.248309e+00
        35         1        8.798532e-01
        36         1       -4.885295e-02
        37         1       -8.492081e-01
        38         1        2.255322e-01
        39         1        4.138902e-01
        40         1       -1.266743e-01
        41         1       -3.908331e-01
        42         1        5.887509e-01
        43         1        4.142719e-01
        44         1        4.431032e-01
        45         1       -1.092981e-01
        46         1       -2.175035e-01
        47         1       -3.756687e-01
        48         1        4.284163e-01
        49         1       -1.806379e+00
        50         1        1.888826e+00
        51         1       -1.440655e+00
        52         1        1.966253e-01
        53         1        1.371525e+00
        54         1       -3.440372e-01
        55         1        1.968457e+00
        56         1        1.137435e+00
        57         1        1.291293e+00
         1         2        1.122722e+00
         2         2       -1.248035e+00
         3         2        9.871821e-01
         4         2       -6.601956e-02
         5         2       -2.003480e-01
         6         2        4.217228e-01
         7         2       -6.598180e-01
         8         2        2.139269e+00
         9         2        7.059433e-01
        10         2        1.022256e+00
        11         2        2.050436e-01
        12         2        2.854544e-01
        13         2        4.238387e-01
        14         2        1.028815e+00
        15         2       -3.617233e-01
        16         2        9.557409e-01
        17         2        7.448341e-01
        18         2       -1.435281e+00
        19         2       -3.051959e-01
        20         2       -7.393781e-01
        21         2       -3.516561e-01
        22         2       -8.510817e-01
        23         2       -1.405044e-01
        24         2        4.924866e-01
        25         2       -8.687952e-01
        26         2        1.518872e+00
        27         2        3.080951e-01
        28         2       -3.440110e-01
        29         2       -9.267787e-01
        30         2       -1.481235e+00
        31         2       -6.301298e-01
        32         2       -6.265892e-02
        33         2        3.146275e-01
        34         2        2.085068e+00
        35         2       -8.419209e-01
        36         2       -1.689812e+00
        37         2       -1.231196e-01
        38         2        1.154146e-01
        39         2        1.408213e+00
        40         2        7.682837e-01
        41         2       -2.130870e+00
        42         2        2.444177e-01
        43         2       -1.232308e+00
        44         2       -6.921203e-02
        45         2       -4.995776e-01
        46         2        6.961344e-01
        47         2        1.278483e+00
        48         2       -3.843522e-01
        49         2        1.229091e+00
        50         2        1.427843e-01
        51         2        5.026965e-01
        52         2       -6.902178e-01
        53         2       -7.849053e-02
        54         2       -4.151401e-01
        55         2       -1.862989e+00
        56         2        2.904984e-01
        57         2       -1.127581e+00
         1         3       -1.619028e+00
         2         3        2.165870e-01
         3         3       -7.886757e-01
         4         3       -1.263512e+00
         5         3       -9.040557e-01
         6         3       -7.311610e-02
         7         3       -3.062930e-01
         8         3        5.335609e-02
         9         3       -1.146838e+00
        10         3       -5.778484e-01
        11         3        8.327149e-01
        12         3       -2.790134e-01
        13         3        1.286141e+00
        14         3        8.474141e-01
        15         3       -8.538646e-01
        16         3       -1.652553e+00
        17         3        9.879630e-02
        18         3        1.464389e-01
        19         3        1.476979e+00
        20         3        1.454360e+00
        21         3        4.409223e-01
        22         3       -2.139275e-02
        23         3       -2.352222e-01
        24         3        3.014419e-01
        25         3       -5.857559e-01
        26         3       -1.012998e+00
        27         3       -6.751277e-01
        28         3        5.501357e-01
        29         3        1.046477e+00
        30         3        2.958281e-01
        31         3       -7.771416e-02
        32         3        1.158335e-02
        33         3        7.372354e-02
        34         3        2.389075e-01
        35         3        1.499558e+00
        36         3        1.641096e-01
        37         3       -7.570117e-01
        38         3        2.176813e+00
        39         3        4.564947e-02
        40         3        2.740246e+00
        41         3       -1.776161e+00
        42         3       -7.254440e-01
        43         3       -1.134640e+00
        44         3       -1.855656e-01
        45         3        2.167496e-01
        46         3        8.680022e-02
        47         3       -2.462357e-01
        48         3       -2.244181e-01
        49         3        9.449068e-03
        50         3       -5.496404e-01
        51         3       -3.383415e-01
        52         3       -8.979342e-01
        53         3        8.708189e-01
        54         3       -1.027584e+00
        55         3       -1.199023e+00
        56         3       -5.345104e-01
        57         3        1.136968e+00
         1         4       -4.242193e-02
         2         4       -7.275772e-01
         3         4        3.767873e-02
         4         4        3.707071e-01
         5         4        9.315404e-01
         6         4        7.746690e-01
         7         4       -1.110226e+00
         8         4       -3.604346e-01
         9         4        3.733590e-01
        10         4        1.060613e-01
        11         4        8.508209e-01
        12         4        6.611735e-02
        13         4       -4.556582e-01
        14         4        1.337187e+00
        15         4        3.608951e-01
        16         4       -1.090718e-01
        17         4        1.037281e+00
        18         4       -8.270944e-01
        19         4       -3.343153e-01
        20         4       -3.075929e-01
        21         4        1.209921e+00
        22         4       -9.105366e-01
        23         4       -3.170659e-01
        24         4       -3.018098e-01
        25         4       -2.087733e+00
        26         4        2.359847e-01
        27         4        1.721512e+00
        28         4       -4.959947e-01
        29         4       -1.343619e+00
        30         4       -3.957365e-01
        31         4        4.604761e-01
        32         4        1.165901e+00
        33         4       -3.197784e-01
        34         4       -3.539604e-01
        35         4       -5.284017e-01
        36         4        1.468752e+00
        37         4       -4.990149e-01
        38         4        2.357087e-01
        39         4        1.423522e+00
        40         4        5.545306e-01
        41         4       -1.060155e+00
        42         4       -1.001360e+00
        43         4        4.100581e+00
        44         4        1.173386e+00
        45         4       -5.748002e-01
        46         4        6.646880e-01
        47         4        2.005639e+00
        48         4       -1.127114e+00
        49         4        7.682115e-01
        50         4       -2.794372e-01
        51         4       -6.743705e-01
        52         4       -3.042830e-01
        53         4       -2.285301e+00
        54         4        2.339061e+00
        55         4       -1.658350e+00
        56         4        2.645125e-01
        57         4        1.191878e+00
         1         5       -9.161533e-01
         2         5       -1.082126e+00
         3         5        1.123755e+00
         4         5        1.906023e-01
         5         5        2.977943e-01
         6         5        4.343218e-01
         7         5        5.722319e-01
         8         5        1.744422e+00
         9         5        4.206490e-01
        10         5        5.378159e-01
        11         5        2.457632e+00
        12         5        7.724061e-01
        13         5       -8.748550e-01
        14         5       -1.097105e+00
        15         5       -2.976749e-01
        16         5       -3.957548e-01
        17         5       -2.640084e-01
        18         5        1.667177e+00
        19         5       -2.808497e+00
        20         5        9.273339e-02
        21         5        1.432567e+00
        22         5        1.986124e+00
        23         5        9.287478e-01
        24         5        1.313993e+00
        25         5       -4.988440e-01
        26         5        1.551186e+00
        27         5       -1.051622e+00
        28         5       -1.602951e+00
        29         5       -7.009934e-01
        30         5        1.065795e+00
        31         5       -3.884310e-01
        32         5       -3.267301e-01
        33         5        6.777601e-02
        34         5       -3.415004e-01
        35         5       -6.356255e-01
        36         5       -8.842751e-01
        37         5       -1.992569e-01
        38         5       -1.108768e+00
        39         5       -7.652048e-01
        40         5        1.342883e-01
        41         5       -8.881249e-01
        42         5       -1.428445e+00
        43         5       -3.896673e-02
        44         5       -2.712154e-01
        45         5       -9.340053e-01
        46         5       -1.410071e+00
        47         5        1.822967e-01
        48         5        1.179410e+00
        49         5       -6.682048e-01
        50         5        1.458959e+00
        51         5       -7.583840e-01
        52         5        2.616982e-01
        53         5        1.215095e+00
        54         5       -1.188618e+00
        55         5        3.913152e-01
        56         5        2.781781e-01
        57         5       -1.920392e-01
;

param theta:=
    1       -1.644460e+00
    2        4.616906e-01
    3        1.081130e+00
    4       -1.583463e-01
    5       -4.908457e-01
;
param X_true:=
    1        2.322813e+00
    2        4.531317e-02
    3       -2.890410e+00
    4       -1.861404e+00
    5       -3.267630e+00
    6       -1.343479e+00
    7       -1.451146e+00
    8        1.100159e+00
    9        8.389602e-02
   10       -1.668132e-01
   11        1.225366e-01
   12        1.454830e+00
   13        3.523497e+00
   14        3.735023e-01
   15       -2.702522e+00
   16       -3.958803e-01
   17        4.189954e-01
   18        6.490723e-01
   19        5.315708e+00
   20        1.928677e-01
   21        1.329727e+00
   22       -1.519589e+00
   23        2.796963e-01
   24        2.724250e-01
   25        2.109198e+00
   26       -3.471273e+00
   27       -8.931898e-01
   28        4.484880e-01
   29        2.181619e+00
   30        1.117607e+00
   31        6.754848e-01
   32        1.267372e+00
   33       -1.774461e+00
   34        3.565155e+00
   35        1.926198e-01
   36       -3.880834e-01
   37        6.279199e-01
   38        2.467296e+00
   39        1.335958e-01
   40        3.346893e+00
   41       -1.575642e+00
   42       -9.037186e-01
   43       -3.108413e+00
   44       -1.023391e+00
   45        4.474203e-01
   46        1.288535e+00
   47        5.560861e-01
   48       -1.675956e+00
   49        3.747814e+00
   50       -4.336909e+00
   51        2.584835e+00
   52       -1.543016e+00
   53       -1.598868e+00
   54       -4.304830e-01
   55       -5.378823e+00
   56       -2.550250e+00
   57       -1.740643e+00
;
param X:=
    1        2.876392e-01
    2        1.729650e-01
    3       -2.007531e-01
    4       -2.788528e-01
    5       -1.378904e+00
    6       -1.343479e+00
    7        1.814314e+00
    8        5.458294e-01
    9        3.644072e-02
   10       -1.668132e-01
   11       -4.696909e-01
   12       -6.424542e-01
   13       -1.014107e-01
   14       -9.296775e-01
   15        5.856034e-03
   16       -3.958803e-01
   17       -1.420045e+00
   18        6.490723e-01
   19        6.125238e-01
   20       -1.362059e-01
   21       -4.251493e-01
   22        1.151733e+00
   23        1.103607e+00
   24        2.724250e-01
   25        1.422686e+00
   26       -6.090986e-02
   27       -8.931898e-01
   28        3.898538e-01
   29        5.782361e-01
   30        9.790838e-01
   31        4.284652e-02
   32       -1.035854e+00
   33        2.560178e-01
   34       -3.980429e-01
   35        9.673641e-01
   36       -1.679397e+00
   37        7.356686e-01
   38        4.468302e-01
   39       -1.149804e+00
   40        2.375413e-01
   41        1.114928e+00
   42        1.162444e+00
   43       -3.108413e+00
   44       -1.023391e+00
   45       -2.333964e-01
   46       -1.888928e-01
   47       -1.034358e+00
   48        1.347098e+00
   49       -7.952946e-01
   50        8.830536e-02
   51        7.777564e-01
   52        7.648913e-01
   53        2.619741e+00
   54       -1.651413e+00
   55        1.018652e+00
   56       -1.050087e+00
   57       -1.740643e+00
;
param outliervec:=
    1    1
    2    1
    3    1
    4    1
    5    1
    6    0
    7    1
    8    1
    9    1
   10    0
   11    1
   12    1
   13    1
   14    1
   15    1
   16    0
   17    1
   18    0
   19    1
   20    1
   21    1
   22    1
   23    1
   24    0
   25    1
   26    1
   27    0
   28    1
   29    1
   30    1
   31    1
   32    1
   33    1
   34    1
   35    1
   36    1
   37    1
   38    1
   39    1
   40    1
   41    1
   42    1
   43    0
   44    0
   45    1
   46    1
   47    1
   48    1
   49    1
   50    1
   51    1
   52    1
   53    1
   54    1
   55    1
   56    1
   57    0
; 
param greedy_time :=         7.593277e-01
;